c ren 1 -> 1
c ren 2 -> 2
c ren 4 -> 3
c ren 7 -> 4
c ren 10 -> 5
c ren 13 -> 6
c ren 15 -> 7
c ren 16 -> 8
c ren 18 -> 9
c ren 20 -> 10
c ren 22 -> 11
c ren 25 -> 12
c ren 28 -> 13
c ren 31 -> 14
c ren 32 -> 15
c ren 34 -> 16
c ren 37 -> 17
c ren 40 -> 18
c ren 41 -> 19
c ren 44 -> 20
c ren 52 -> 21
c ren 59 -> 22
c ren 100 -> 23
c ren 125 -> 24
c ren 133 -> 25
c ren 146 -> 26
p cnf 26 63
a 1 2 3 4 5 7 8 9 10 11 14 15 16 18 19 21 22 25 26 0
d 12 21 22 0
d 23 1 7 0
d 24 14 18 0
e 6 13 17 20 0
1 -3 6 0
-5 -6 10 11 12 -13 -17 -20 21 22 0
-3 -6 -13 -17 -20 -23 0
-5 -6 10 11 -12 -13 -17 -20 -22 0
-4 -6 -13 -17 -20 -23 0
1 -4 6 0
2 3 4 5 -6 8 9 10 11 -13 15 16 -17 19 -20 21 22 -25 0
-5 -6 -13 -17 -20 -23 0
-6 9 10 11 12 -13 -16 -17 -20 21 22 0
1 -5 6 0
2 3 4 5 -6 8 9 10 11 -12 -13 15 16 -17 19 -20 25 0
7 -8 13 0
-6 -10 -13 -17 -20 -23 0
7 -11 13 0
-5 -6 10 11 -12 -13 -17 -20 -21 0
-3 -6 10 11 -12 -13 -17 -20 -22 0
7 9 13 0
-6 -11 -13 -17 -20 -23 0
-3 -6 10 11 12 -13 -17 -20 21 22 0
-6 9 -13 -17 -20 -23 0
-14 15 16 17 0
2 3 4 5 -6 8 9 -12 -13 -16 -17 -20 -24 0
2 3 4 5 -6 8 9 -12 -13 -15 -17 -20 -24 0
14 -16 17 0
-6 9 10 11 -12 -13 -16 -17 -20 -22 0
10 11 -18 -19 20 0
2 3 4 5 -6 8 9 -12 -13 -17 19 -20 -24 0
-6 9 10 11 12 -13 -17 -19 -20 21 22 0
2 3 4 5 -6 8 9 -11 -12 -13 -17 -20 -24 0
2 3 4 5 -6 8 9 -10 -12 -13 -17 -20 -24 0
14 -15 17 0
7 -10 13 0
-2 -6 10 11 -12 -13 -17 -20 -21 0
-2 -6 10 11 -12 -13 -17 -20 -22 0
-2 -6 10 11 12 -13 -17 -20 21 22 0
-6 9 10 11 -12 -13 -15 -17 -20 -21 0
-4 -6 10 11 12 -13 -17 -20 21 22 0
-6 -8 10 11 -12 -13 -17 -20 -22 0
2 3 4 5 -6 8 9 10 11 -13 15 16 -17 -19 -20 21 22 24 0
-4 -6 10 11 -12 -13 -17 -20 -21 0
2 3 4 5 -6 8 9 -12 -13 -17 -20 -22 -24 0
-6 9 10 11 -12 -13 -15 -17 -20 -22 0
-6 -8 -13 -17 -20 -23 0
-6 -13 -17 -20 -21 -23 0
1 -2 6 0
-6 -13 -17 -20 -22 -23 0
-6 -8 10 11 -12 -13 -17 -20 -21 0
-10 18 20 0
-6 9 10 11 12 -13 -15 -17 -20 21 22 0
-6 9 10 11 12 -13 -17 -20 21 22 25 -26 0
18 19 20 0
-6 -8 10 11 12 -13 -17 -20 21 22 0
-6 9 10 11 -12 -13 -16 -17 -20 -21 0
-1 2 3 4 5 6 0
2 3 4 5 -6 8 -9 10 11 -13 -17 -20 21 22 23 0
-6 9 10 11 12 -13 -17 -20 21 22 25 26 0
-7 8 -9 10 11 -12 13 0
-3 -6 10 11 -12 -13 -17 -20 -21 0
-11 18 20 0
2 3 4 5 -6 8 9 -12 -13 -17 -20 -21 -24 0
-4 -6 10 11 -12 -13 -17 -20 -22 0
7 12 13 0
-2 -6 -13 -17 -20 -23 0
